(set-logic QF_S)
(declare-fun var0 () String)
(declare-fun var1 () String)
(declare-fun var2 () String)
(declare-fun var3 () String)
(declare-fun var4 () String)
(declare-fun var5 () String)
(declare-fun var6 () String)
(declare-fun var7 () String)
(declare-fun var8 () String)
(declare-fun var9 () String)
(declare-fun var10 () String)
(declare-fun var11 () String)
(declare-fun var12 () String)
(declare-fun var13 () String)
(declare-fun var14 () String)
(declare-fun var15 () String)
(declare-fun var16 () String)
(declare-fun var17 () String)
(declare-fun var18 () String)
(declare-fun var19 () String)
(declare-fun var20 () String)
(declare-fun var21 () String)
(declare-fun var22 () String)
(declare-fun var23 () String)
(declare-fun var24 () String)
(declare-fun var25 () String)
(declare-fun var26 () String)
(declare-fun var27 () String)
(declare-fun var28 () String)
(declare-fun var29 () String)
(declare-fun var30 () String)
(declare-fun var31 () String)
(declare-fun var32 () String)
(declare-fun var33 () String)
(declare-fun var34 () String)
(declare-fun var35 () String)
(declare-fun var36 () String)
(declare-fun var37 () String)
(declare-fun var38 () String)
(declare-fun var39 () String)
(declare-fun var40 () String)
(declare-fun var41 () String)
(declare-fun var42 () String)
(declare-fun var43 () String)
(declare-fun var44 () String)
(declare-fun var45 () String)
(declare-fun var46 () String)
(declare-fun var47 () String)
(declare-fun var48 () String)
(declare-fun var49 () String)
(declare-fun var50 () String)
(declare-fun var51 () String)
(declare-fun var52 () String)
(declare-fun var53 () String)
(declare-fun var54 () String)
(declare-fun var55 () String)
(declare-fun var56 () String)
(declare-fun var57 () String)
(declare-fun var58 () String)
(declare-fun var59 () String)
(declare-fun var60 () String)
(assert (= var0 (Concat var1 var2)))
(assert (= var2 (Concat var3 var4)))
(assert (= var4 (Concat var5 var6)))
(assert (= var6 (Concat var7 var8)))
(assert (= var8 (Concat var9 var10)))
(assert (= var10 (Concat var11 var12)))
(assert (= var12 (Concat var13 var14)))
(assert (= var14 (Concat var15 var16)))
(assert (= var16 (Concat var17 var18)))
(assert (= var18 (Concat var19 var20)))
(assert (= var20 (Concat var21 var22)))
(assert (= var22 (Concat var23 var24)))
(assert (= var24 (Concat var25 var26)))
(assert (= var26 (Concat var27 var28)))
(assert (= var28 (Concat var29 var30)))
(assert (= var30 (Concat var31 var32)))
(assert (= var32 (Concat var33 var34)))
(assert (= var34 (Concat var35 var36)))
(assert (= var36 (Concat var37 var38)))
(assert (= var38 (Concat var39 var40)))
(assert (= var40 (Concat var41 var42)))
(assert (= var42 (Concat var43 var44)))
(assert (= var44 (Concat var45 var46)))
(assert (= var46 (Concat var47 var48)))
(assert (= var48 (Concat var49 var50)))
(assert (= var50 (Concat var51 var52)))
(assert (= var52 (Concat var53 var54)))
(assert (= var54 (Concat var55 var56)))
(assert (= var56 (Concat var57 var58)))
(assert (= var58 (Concat var59 var60)))
(assert (= var0 "solution"))
(assert (= "F" (CharAt var45 322)))
(assert (= "I" (CharAt var2 631)))
(assert (= "t" (CharAt var0 707)))
(assert (= "{" (CharAt var45 703)))
(assert (= "@" (CharAt var14 374)))
(assert (= "$" (CharAt var41 966)))
(assert (= "5" (CharAt var45 796)))
(assert (= "}" (CharAt var3 709)))
(assert (= "k" (CharAt var32 64)))
(assert (= "H" (CharAt var18 765)))
(assert (= "~" (CharAt var27 196)))
(assert (= "-" (CharAt var27 657)))
(assert (= "~" (CharAt var35 850)))
(assert (= "9" (CharAt var13 732)))
(assert (= "D" (CharAt var18 109)))
(assert (= "#" (CharAt var14 463)))
(assert (= "." (CharAt var31 108)))
(assert (= "/" (CharAt var0 712)))
(assert (= "e" (CharAt var17 681)))
(assert (= "J" (CharAt var24 141)))
(assert (= "y" (CharAt var17 526)))
(assert (= "m" (CharAt var15 36)))
(assert (= "F" (CharAt var52 618)))
(assert (= "d" (CharAt var21 62)))
(assert (= "y" (CharAt var24 883)))
(assert (= "$" (CharAt var4 167)))
(assert (= "." (CharAt var49 13)))
(assert (= "\"" (CharAt var58 216)))
(assert (= "D" (CharAt var7 725)))
(assert (= "9" (CharAt var23 778)))
(assert (= "#" (CharAt var23 199)))
(assert (= "'" (CharAt var46 531)))
(assert (= "Z" (CharAt var45 480)))
(assert (= "j" (CharAt var47 874)))
(assert (= "9" (CharAt var57 622)))
(assert (= "{" (CharAt var45 210)))
(assert (= "D" (CharAt var55 140)))
(assert (= "F" (CharAt var11 525)))
(assert (= "G" (CharAt var45 24)))
(assert (= "5" (CharAt var36 296)))
(assert (= "W" (CharAt var10 625)))
(assert (= "`" (CharAt var4 658)))
(assert (= "t" (CharAt var1 845)))
(assert (= "<" (CharAt var57 653)))
(assert (= "Y" (CharAt var30 423)))
(assert (= "^" (CharAt var59 42)))
(assert (= "*" (CharAt var9 361)))
(assert (= "G" (CharAt var52 714)))
(assert (= "9" (CharAt var48 521)))
(assert (= "7" (CharAt var60 70)))
(assert (= "=" (CharAt var57 812)))
(assert (= "n" (CharAt var40 567)))
(assert (= "{" (CharAt var56 424)))
(assert (= "M" (CharAt var59 519)))
(assert (= "y" (CharAt var25 262)))
(assert (= "$" (CharAt var1 148)))
(assert (= "2" (CharAt var57 991)))
(assert (= "y" (CharAt var38 723)))
(assert (= "D" (CharAt var18 229)))
(assert (= "\"" (CharAt var31 251)))
(assert (= "Y" (CharAt var28 904)))
(assert (= "^" (CharAt var22 264)))
(assert (= "n" (CharAt var29 220)))
(assert (= "z" (CharAt var8 167)))
(assert (= "P" (CharAt var20 698)))
(assert (= "<" (CharAt var43 373)))
(assert (= "l" (CharAt var31 798)))
(assert (= "_" (CharAt var60 470)))
(assert (= "R" (CharAt var13 664)))
(assert (= "r" (CharAt var27 778)))
(assert (= "k" (CharAt var22 688)))
(assert (= "^" (CharAt var18 152)))
(assert (= "." (CharAt var20 262)))
(assert (= ";" (CharAt var27 832)))
(assert (= "w" (CharAt var40 137)))
(assert (= ";" (CharAt var12 219)))
(assert (= "<" (CharAt var30 869)))
(assert (= "Y" (CharAt var0 588)))
(assert (= "X" (CharAt var30 665)))
(assert (= "}" (CharAt var43 415)))
(assert (= "8" (CharAt var56 765)))
(assert (= "*" (CharAt var14 159)))
(assert (= "]" (CharAt var8 28)))
(assert (= "9" (CharAt var20 647)))
(assert (= "o" (CharAt var19 241)))
(assert (= "b" (CharAt var11 145)))
(assert (= "0" (CharAt var47 908)))
(assert (= "c" (CharAt var22 978)))
(assert (= "-" (CharAt var22 429)))
(assert (= "V" (CharAt var14 913)))
(assert (= "3" (CharAt var12 711)))
(assert (= "$" (CharAt var52 99)))
(assert (= "B" (CharAt var3 396)))
(assert (= ">" (CharAt var54 829)))
(assert (= "0" (CharAt var17 788)))
(assert (= "_" (CharAt var28 302)))
(assert (= "S" (CharAt var59 389)))
(assert (= "K" (CharAt var8 756)))
(assert (= "N" (CharAt var14 408)))
(assert (= "$" (CharAt var5 325)))
(assert (= "3" (CharAt var10 971)))
(assert (= "~" (CharAt var29 116)))
(assert (= "e" (CharAt var20 733)))
(assert (= "(" (CharAt var7 273)))
(assert (= "8" (CharAt var24 74)))
(assert (= "\\" (CharAt var12 862)))
(assert (= "$" (CharAt var4 20)))
(assert (= "N" (CharAt var39 853)))
(assert (= ":" (CharAt var4 31)))
(assert (= "n" (CharAt var51 90)))
(assert (= "|" (CharAt var18 172)))
(assert (= "N" (CharAt var14 741)))
(assert (= "-" (CharAt var37 753)))
(assert (= "{" (CharAt var52 589)))
(assert (= "V" (CharAt var41 19)))
(assert (= "J" (CharAt var5 681)))
(assert (= ">" (CharAt var41 280)))
(assert (= "p" (CharAt var3 223)))
(assert (= "]" (CharAt var20 200)))
(assert (= "[" (CharAt var9 517)))
(assert (= "7" (CharAt var26 312)))
(check-sat)